p cnf 797 2799
c input variables 20
c output variables 1
c literals 7855
-21 5 0
21 -5 10 0
-21 -10 0
-22 4 0
22 -4 5 9 10 0
-22 5 -10 0
-22 -9 0
22 -4 -5 9 -10 0
-22 -5 10 0
23 -22 0
-23 21 22 0
23 -21 0
-24 3 0
24 -3 5 8 10 0
-24 5 -10 0
-24 -8 0
24 -3 -5 8 -10 0
-24 -5 10 0
25 4 9 -24 0
-25 24 0
-25 4 -9 0
-25 -4 9 0
25 -4 -9 -24 0
26 -25 0
-26 23 25 0
26 -23 0
-27 2 0
27 -2 5 7 10 0
-27 5 -10 0
-27 -7 0
27 -2 -5 7 -10 0
-27 -5 10 0
28 4 9 -27 0
-28 27 0
-28 4 -9 0
-28 -4 9 0
28 -4 -9 -27 0
29 3 8 -28 0
-29 28 0
-29 3 -8 0
-29 -3 8 0
29 -3 -8 -28 0
30 -29 0
-30 26 29 0
30 -26 0
-31 1 0
31 -1 5 6 10 0
-31 5 -10 0
-31 -6 0
31 -1 -5 6 -10 0
-31 -5 10 0
32 4 9 -31 0
-32 31 0
-32 4 -9 0
-32 -4 9 0
32 -4 -9 -31 0
33 3 8 -32 0
-33 32 0
-33 3 -8 0
-33 -3 8 0
33 -3 -8 -32 0
34 2 7 -33 0
-34 33 0
-34 2 -7 0
-34 -2 7 0
34 -2 -7 -33 0
35 -34 0
-35 30 34 0
35 -30 0
-36 35 0
36 -35 0
-37 0
-38 0
39 -38 0
-39 37 38 0
39 -37 0
-40 0
41 -40 0
-41 40 0
42 -41 0
-42 39 41 0
42 -39 0
-43 0
44 -43 0
-44 43 0
45 -44 0
-45 44 0
46 -45 0
-46 42 45 0
46 -42 0
-47 0
48 -47 0
-48 47 0
49 -48 0
-49 48 0
50 -49 0
-50 49 0
51 -50 0
-51 46 50 0
51 -46 0
-52 36 0
52 -36 -51 0
-52 51 0
53 -52 0
-53 36 52 0
53 -36 0
54 10 -15 0
-54 15 0
-54 -10 0
-55 14 0
55 9 10 -14 15 0
-55 10 -15 0
55 9 -10 -14 -15 0
-55 -10 15 0
-55 -9 0
56 -55 0
-56 54 55 0
56 -54 0
-57 13 0
57 8 10 -13 15 0
-57 10 -15 0
57 8 -10 -13 -15 0
-57 -10 15 0
-57 -8 0
58 9 14 -57 0
-58 57 0
-58 9 -14 0
-58 -9 14 0
58 -9 -14 -57 0
59 -58 0
-59 56 58 0
59 -56 0
-60 12 0
60 7 10 -12 15 0
-60 10 -15 0
60 7 -10 -12 -15 0
-60 -10 15 0
-60 -7 0
61 9 14 -60 0
-61 60 0
-61 9 -14 0
-61 -9 14 0
61 -9 -14 -60 0
62 8 13 -61 0
-62 61 0
-62 8 -13 0
-62 -8 13 0
62 -8 -13 -61 0
63 -62 0
-63 59 62 0
63 -59 0
-64 11 0
64 6 10 -11 15 0
-64 10 -15 0
64 6 -10 -11 -15 0
-64 -10 15 0
-64 -6 0
65 9 14 -64 0
-65 64 0
-65 9 -14 0
-65 -9 14 0
65 -9 -14 -64 0
66 8 13 -65 0
-66 65 0
-66 8 -13 0
-66 -8 13 0
66 -8 -13 -65 0
67 7 12 -66 0
-67 66 0
-67 7 -12 0
-67 -7 12 0
67 -7 -12 -66 0
68 -67 0
-68 63 67 0
68 -63 0
69 10 -20 0
-69 20 0
-69 -10 0
-70 19 0
70 9 10 -19 20 0
-70 10 -20 0
70 9 -10 -19 -20 0
-70 -10 20 0
-70 -9 0
71 -70 0
-71 69 70 0
71 -69 0
-72 18 0
72 8 10 -18 20 0
-72 10 -20 0
72 8 -10 -18 -20 0
-72 -10 20 0
-72 -8 0
73 9 19 -72 0
-73 72 0
-73 9 -19 0
-73 -9 19 0
73 -9 -19 -72 0
74 -73 0
-74 71 73 0
74 -71 0
-75 17 0
75 7 10 -17 20 0
-75 10 -20 0
75 7 -10 -17 -20 0
-75 -10 20 0
-75 -7 0
76 9 19 -75 0
-76 75 0
-76 9 -19 0
-76 -9 19 0
76 -9 -19 -75 0
77 8 18 -76 0
-77 76 0
-77 8 -18 0
-77 -8 18 0
77 -8 -18 -76 0
78 -77 0
-78 74 77 0
78 -74 0
-79 16 0
79 6 10 -16 20 0
-79 10 -20 0
79 6 -10 -16 -20 0
-79 -10 20 0
-79 -6 0
80 9 19 -79 0
-80 79 0
-80 9 -19 0
-80 -9 19 0
80 -9 -19 -79 0
81 8 18 -80 0
-81 80 0
-81 8 -18 0
-81 -8 18 0
81 -8 -18 -80 0
82 7 17 -81 0
-82 81 0
-82 7 -17 0
-82 -7 17 0
82 -7 -17 -81 0
83 -82 0
-83 78 82 0
83 -78 0
84 53 0
-84 -53 0
-85 5 0
85 -5 15 0
-85 -15 0
-86 4 0
86 -4 5 14 15 0
-86 5 -15 0
-86 -14 0
86 -4 -5 14 -15 0
-86 -5 15 0
87 -86 0
-87 85 86 0
87 -85 0
-88 3 0
88 -3 5 13 15 0
-88 5 -15 0
-88 -13 0
88 -3 -5 13 -15 0
-88 -5 15 0
89 4 14 -88 0
-89 88 0
-89 4 -14 0
-89 -4 14 0
89 -4 -14 -88 0
90 -89 0
-90 87 89 0
90 -87 0
-91 2 0
91 -2 5 12 15 0
-91 5 -15 0
-91 -12 0
91 -2 -5 12 -15 0
-91 -5 15 0
92 4 14 -91 0
-92 91 0
-92 4 -14 0
-92 -4 14 0
92 -4 -14 -91 0
93 3 13 -92 0
-93 92 0
-93 3 -13 0
-93 -3 13 0
93 -3 -13 -92 0
94 -93 0
-94 90 93 0
94 -90 0
-95 1 0
95 -1 5 11 15 0
-95 5 -15 0
-95 -11 0
95 -1 -5 11 -15 0
-95 -5 15 0
96 4 14 -95 0
-96 95 0
-96 4 -14 0
-96 -4 14 0
96 -4 -14 -95 0
97 3 13 -96 0
-97 96 0
-97 3 -13 0
-97 -3 13 0
97 -3 -13 -96 0
98 2 12 -97 0
-98 97 0
-98 2 -12 0
-98 -2 12 0
98 -2 -12 -97 0
99 -98 0
-99 94 98 0
99 -94 0
-100 84 0
100 -84 -99 0
-100 99 0
-101 53 0
101 -53 100 0
-101 -100 0
-102 100 0
102 -100 0
-103 101 0
103 -101 102 0
-103 -102 0
-104 10 0
104 -10 15 0
-104 -15 0
-105 9 0
105 -9 10 14 15 0
-105 10 -15 0
-105 -14 0
105 -9 -10 14 -15 0
-105 -10 15 0
106 -105 0
-106 104 105 0
106 -104 0
-107 8 0
107 -8 10 13 15 0
-107 10 -15 0
-107 -13 0
107 -8 -10 13 -15 0
-107 -10 15 0
108 9 14 -107 0
-108 107 0
-108 9 -14 0
-108 -9 14 0
108 -9 -14 -107 0
109 -108 0
-109 106 108 0
109 -106 0
-110 7 0
110 -7 10 12 15 0
-110 10 -15 0
-110 -12 0
110 -7 -10 12 -15 0
-110 -10 15 0
111 9 14 -110 0
-111 110 0
-111 9 -14 0
-111 -9 14 0
111 -9 -14 -110 0
112 8 13 -111 0
-112 111 0
-112 8 -13 0
-112 -8 13 0
112 -8 -13 -111 0
113 -112 0
-113 109 112 0
113 -109 0
-114 6 0
114 -6 10 11 15 0
-114 10 -15 0
-114 -11 0
114 -6 -10 11 -15 0
-114 -10 15 0
115 9 14 -114 0
-115 114 0
-115 9 -14 0
-115 -9 14 0
115 -9 -14 -114 0
116 8 13 -115 0
-116 115 0
-116 8 -13 0
-116 -8 13 0
116 -8 -13 -115 0
117 7 12 -116 0
-117 116 0
-117 7 -12 0
-117 -7 12 0
117 -7 -12 -116 0
118 -117 0
-118 113 117 0
118 -113 0
-119 103 0
119 -103 -118 0
-119 118 0
-120 101 0
120 -101 119 0
-120 -119 0
121 -119 0
-121 102 119 0
121 -102 0
122 120 0
-122 -120 0
-123 121 0
123 -121 -122 0
-123 122 0
-124 0
-125 0
126 -125 0
-126 124 125 0
126 -124 0
-127 0
128 -127 0
-128 127 0
129 -128 0
-129 126 128 0
129 -126 0
-130 0
131 -130 0
-131 130 0
132 -131 0
-132 131 0
133 -132 0
-133 129 132 0
133 -129 0
-134 0
135 -134 0
-135 134 0
136 -135 0
-136 135 0
137 -136 0
-137 136 0
138 -137 0
-138 133 137 0
138 -133 0
-139 123 0
139 -123 -138 0
-139 138 0
-140 120 0
140 -120 139 0
-140 -139 0
141 -139 0
-141 121 139 0
141 -121 0
-142 140 0
142 -140 -141 0
-142 141 0
143 15 -20 0
-143 20 0
-143 -15 0
-144 19 0
144 14 15 -19 20 0
-144 15 -20 0
144 14 -15 -19 -20 0
-144 -15 20 0
-144 -14 0
145 -144 0
-145 143 144 0
145 -143 0
-146 18 0
146 13 15 -18 20 0
-146 15 -20 0
146 13 -15 -18 -20 0
-146 -15 20 0
-146 -13 0
147 14 19 -146 0
-147 146 0
-147 14 -19 0
-147 -14 19 0
147 -14 -19 -146 0
148 -147 0
-148 145 147 0
148 -145 0
-149 17 0
149 12 15 -17 20 0
-149 15 -20 0
149 12 -15 -17 -20 0
-149 -15 20 0
-149 -12 0
150 14 19 -149 0
-150 149 0
-150 14 -19 0
-150 -14 19 0
150 -14 -19 -149 0
151 13 18 -150 0
-151 150 0
-151 13 -18 0
-151 -13 18 0
151 -13 -18 -150 0
152 -151 0
-152 148 151 0
152 -148 0
-153 16 0
153 11 15 -16 20 0
-153 15 -20 0
153 11 -15 -16 -20 0
-153 -15 20 0
-153 -11 0
154 14 19 -153 0
-154 153 0
-154 14 -19 0
-154 -14 19 0
154 -14 -19 -153 0
155 13 18 -154 0
-155 154 0
-155 13 -18 0
-155 -13 18 0
155 -13 -18 -154 0
156 12 17 -155 0
-156 155 0
-156 12 -17 0
-156 -12 17 0
156 -12 -17 -155 0
157 -156 0
-157 152 156 0
157 -152 0
-158 142 0
158 -142 -157 0
-158 157 0
-159 140 0
159 -140 158 0
-159 -158 0
160 -158 0
-160 141 158 0
160 -141 0
161 159 0
-161 -159 0
162 160 -161 0
-162 161 0
-162 -160 0
-163 5 0
163 -5 20 0
-163 -20 0
-164 4 0
164 -4 5 19 20 0
-164 5 -20 0
-164 -19 0
164 -4 -5 19 -20 0
-164 -5 20 0
165 -164 0
-165 163 164 0
165 -163 0
-166 3 0
166 -3 5 18 20 0
-166 5 -20 0
-166 -18 0
166 -3 -5 18 -20 0
-166 -5 20 0
167 4 19 -166 0
-167 166 0
-167 4 -19 0
-167 -4 19 0
167 -4 -19 -166 0
168 -167 0
-168 165 167 0
168 -165 0
-169 2 0
169 -2 5 17 20 0
-169 5 -20 0
-169 -17 0
169 -2 -5 17 -20 0
-169 -5 20 0
170 4 19 -169 0
-170 169 0
-170 4 -19 0
-170 -4 19 0
170 -4 -19 -169 0
171 3 18 -170 0
-171 170 0
-171 3 -18 0
-171 -3 18 0
171 -3 -18 -170 0
172 -171 0
-172 168 171 0
172 -168 0
-173 1 0
173 -1 5 16 20 0
-173 5 -20 0
-173 -16 0
173 -1 -5 16 -20 0
-173 -5 20 0
174 4 19 -173 0
-174 173 0
-174 4 -19 0
-174 -4 19 0
174 -4 -19 -173 0
175 3 18 -174 0
-175 174 0
-175 3 -18 0
-175 -3 18 0
175 -3 -18 -174 0
176 2 17 -175 0
-176 175 0
-176 2 -17 0
-176 -2 17 0
176 -2 -17 -175 0
177 -176 0
-177 172 176 0
177 -172 0
-178 162 0
178 -162 -177 0
-178 177 0
179 -178 0
-179 159 178 0
179 -159 0
180 -178 0
-180 160 178 0
180 -160 0
-181 179 0
181 -179 180 0
-181 -180 0
-182 10 0
182 -10 20 0
-182 -20 0
-183 9 0
183 -9 10 19 20 0
-183 10 -20 0
-183 -19 0
183 -9 -10 19 -20 0
-183 -10 20 0
184 -183 0
-184 182 183 0
184 -182 0
-185 8 0
185 -8 10 18 20 0
-185 10 -20 0
-185 -18 0
185 -8 -10 18 -20 0
-185 -10 20 0
186 9 19 -185 0
-186 185 0
-186 9 -19 0
-186 -9 19 0
186 -9 -19 -185 0
187 -186 0
-187 184 186 0
187 -184 0
-188 7 0
188 -7 10 17 20 0
-188 10 -20 0
-188 -17 0
188 -7 -10 17 -20 0
-188 -10 20 0
189 9 19 -188 0
-189 188 0
-189 9 -19 0
-189 -9 19 0
189 -9 -19 -188 0
190 8 18 -189 0
-190 189 0
-190 8 -18 0
-190 -8 18 0
190 -8 -18 -189 0
191 -190 0
-191 187 190 0
191 -187 0
-192 6 0
192 -6 10 16 20 0
-192 10 -20 0
-192 -16 0
192 -6 -10 16 -20 0
-192 -10 20 0
193 9 19 -192 0
-193 192 0
-193 9 -19 0
-193 -9 19 0
193 -9 -19 -192 0
194 8 18 -193 0
-194 193 0
-194 8 -18 0
-194 -8 18 0
194 -8 -18 -193 0
195 7 17 -194 0
-195 194 0
-195 7 -17 0
-195 -7 17 0
195 -7 -17 -194 0
196 -195 0
-196 191 195 0
196 -191 0
-197 181 0
197 -181 -196 0
-197 196 0
198 -197 0
-198 179 197 0
198 -179 0
199 -197 0
-199 180 197 0
199 -180 0
200 198 0
-200 -198 0
-201 199 0
201 -199 -200 0
-201 200 0
-202 15 0
202 -15 20 0
-202 -20 0
-203 14 0
203 -14 15 19 20 0
-203 15 -20 0
-203 -19 0
203 -14 -15 19 -20 0
-203 -15 20 0
204 -203 0
-204 202 203 0
204 -202 0
-205 13 0
205 -13 15 18 20 0
-205 15 -20 0
-205 -18 0
205 -13 -15 18 -20 0
-205 -15 20 0
206 14 19 -205 0
-206 205 0
-206 14 -19 0
-206 -14 19 0
206 -14 -19 -205 0
207 -206 0
-207 204 206 0
207 -204 0
-208 12 0
208 -12 15 17 20 0
-208 15 -20 0
-208 -17 0
208 -12 -15 17 -20 0
-208 -15 20 0
209 14 19 -208 0
-209 208 0
-209 14 -19 0
-209 -14 19 0
209 -14 -19 -208 0
210 13 18 -209 0
-210 209 0
-210 13 -18 0
-210 -13 18 0
210 -13 -18 -209 0
211 -210 0
-211 207 210 0
211 -207 0
-212 11 0
212 -11 15 16 20 0
-212 15 -20 0
-212 -16 0
212 -11 -15 16 -20 0
-212 -15 20 0
213 14 19 -212 0
-213 212 0
-213 14 -19 0
-213 -14 19 0
213 -14 -19 -212 0
214 13 18 -213 0
-214 213 0
-214 13 -18 0
-214 -13 18 0
214 -13 -18 -213 0
215 12 17 -214 0
-215 214 0
-215 12 -17 0
-215 -12 17 0
215 -12 -17 -214 0
216 -215 0
-216 211 215 0
216 -211 0
-217 201 0
217 -201 -216 0
-217 216 0
218 -217 0
-218 198 217 0
218 -198 0
219 -217 0
-219 199 217 0
219 -199 0
-220 218 0
220 -218 -219 0
-220 219 0
-221 0
-222 0
223 -222 0
-223 221 222 0
223 -221 0
-224 0
225 -224 0
-225 224 0
226 -225 0
-226 223 225 0
226 -223 0
-227 0
228 -227 0
-228 227 0
229 -228 0
-229 228 0
230 -229 0
-230 226 229 0
230 -226 0
-231 0
232 -231 0
-232 231 0
233 -232 0
-233 232 0
234 -233 0
-234 233 0
235 -234 0
-235 230 234 0
235 -230 0
-236 220 0
236 -220 -235 0
-236 235 0
237 -236 0
-237 218 236 0
237 -218 0
238 -236 0
-238 219 236 0
238 -219 0
239 237 0
-239 -237 0
240 238 -239 0
-240 239 0
-240 -238 0
241 -1 0
-241 1 0
242 -2 0
-242 2 0
243 -3 0
-243 3 0
244 -4 0
-244 4 0
245 -5 0
-245 5 0
-246 237 0
246 -237 238 0
-246 -238 0
247 -241 246 0
247 -6 -246 0
-247 241 246 0
-247 6 -246 0
248 -242 246 0
248 -7 -246 0
-248 242 246 0
-248 7 -246 0
249 -243 246 0
249 -8 -246 0
-249 243 246 0
-249 8 -246 0
250 -244 246 0
250 -9 -246 0
-250 244 246 0
-250 9 -246 0
251 -245 246 0
251 -10 -246 0
-251 245 246 0
-251 10 -246 0
252 -6 246 0
252 -241 -246 0
-252 6 246 0
-252 241 -246 0
253 -7 246 0
253 -242 -246 0
-253 7 246 0
-253 242 -246 0
254 -8 246 0
254 -243 -246 0
-254 8 246 0
-254 243 -246 0
255 -9 246 0
255 -244 -246 0
-255 9 246 0
-255 244 -246 0
256 -10 246 0
256 -245 -246 0
-256 10 246 0
-256 245 -246 0
-257 238 0
257 -238 -239 0
-257 239 0
258 -247 257 0
258 -11 -257 0
-258 247 257 0
-258 11 -257 0
259 -248 257 0
259 -12 -257 0
-259 248 257 0
-259 12 -257 0
260 -249 257 0
260 -13 -257 0
-260 249 257 0
-260 13 -257 0
261 -250 257 0
261 -14 -257 0
-261 250 257 0
-261 14 -257 0
262 -251 257 0
262 -15 -257 0
-262 251 257 0
-262 15 -257 0
263 -11 257 0
263 -247 -257 0
-263 11 257 0
-263 247 -257 0
264 -12 257 0
264 -248 -257 0
-264 12 257 0
-264 248 -257 0
265 -13 257 0
265 -249 -257 0
-265 13 257 0
-265 249 -257 0
266 -14 257 0
266 -250 -257 0
-266 14 257 0
-266 250 -257 0
267 -15 257 0
267 -251 -257 0
-267 15 257 0
-267 251 -257 0
-268 237 0
268 -237 -238 0
-268 238 0
269 -258 268 0
269 -16 -268 0
-269 258 268 0
-269 16 -268 0
270 -259 268 0
270 -17 -268 0
-270 259 268 0
-270 17 -268 0
271 -260 268 0
271 -18 -268 0
-271 260 268 0
-271 18 -268 0
272 -261 268 0
272 -19 -268 0
-272 261 268 0
-272 19 -268 0
273 -262 268 0
273 -20 -268 0
-273 262 268 0
-273 20 -268 0
274 -16 268 0
274 -258 -268 0
-274 16 268 0
-274 258 -268 0
275 -17 268 0
275 -259 -268 0
-275 17 268 0
-275 259 -268 0
276 -18 268 0
276 -260 -268 0
-276 18 268 0
-276 260 -268 0
277 -19 268 0
277 -261 -268 0
-277 19 268 0
-277 261 -268 0
278 -20 268 0
278 -262 -268 0
-278 20 268 0
-278 262 -268 0
-279 256 0
279 -256 267 0
-279 -267 0
-280 255 0
280 -255 256 266 267 0
-280 256 -267 0
-280 -266 0
280 -255 -256 266 -267 0
-280 -256 267 0
281 -280 0
-281 279 280 0
281 -279 0
-282 254 0
282 -254 256 265 267 0
-282 256 -267 0
-282 -265 0
282 -254 -256 265 -267 0
-282 -256 267 0
283 255 266 -282 0
-283 282 0
-283 255 -266 0
-283 -255 266 0
283 -255 -266 -282 0
284 -283 0
-284 281 283 0
284 -281 0
-285 253 0
285 -253 256 264 267 0
-285 256 -267 0
-285 -264 0
285 -253 -256 264 -267 0
-285 -256 267 0
286 255 266 -285 0
-286 285 0
-286 255 -266 0
-286 -255 266 0
286 -255 -266 -285 0
287 254 265 -286 0
-287 286 0
-287 254 -265 0
-287 -254 265 0
287 -254 -265 -286 0
288 -287 0
-288 284 287 0
288 -284 0
-289 252 0
289 -252 256 263 267 0
-289 256 -267 0
-289 -263 0
289 -252 -256 263 -267 0
-289 -256 267 0
290 255 266 -289 0
-290 289 0
-290 255 -266 0
-290 -255 266 0
290 -255 -266 -289 0
291 254 265 -290 0
-291 290 0
-291 254 -265 0
-291 -254 265 0
291 -254 -265 -290 0
292 253 264 -291 0
-292 291 0
-292 253 -264 0
-292 -253 264 0
292 -253 -264 -291 0
293 -292 0
-293 288 292 0
293 -288 0
294 293 0
-294 -293 0
-295 293 0
295 -293 0
296 294 0
-296 -294 0
-297 295 0
297 -295 -296 0
-297 296 0
-298 0
-299 0
300 -299 0
-300 298 299 0
300 -298 0
-301 0
302 -301 0
-302 301 0
303 -302 0
-303 300 302 0
303 -300 0
-304 0
305 -304 0
-305 304 0
306 -305 0
-306 305 0
307 -306 0
-307 303 306 0
307 -303 0
-308 0
309 -308 0
-309 308 0
310 -309 0
-310 309 0
311 -310 0
-311 310 0
312 -311 0
-312 307 311 0
312 -307 0
-313 297 0
313 -297 -312 0
-313 312 0
-314 294 0
314 -294 313 0
-314 -313 0
315 -313 0
-315 295 313 0
315 -295 0
-316 314 0
316 -314 -315 0
-316 315 0
317 267 -278 0
-317 278 0
-317 -267 0
-318 277 0
318 266 267 -277 278 0
-318 267 -278 0
318 266 -267 -277 -278 0
-318 -267 278 0
-318 -266 0
319 -318 0
-319 317 318 0
319 -317 0
-320 276 0
320 265 267 -276 278 0
-320 267 -278 0
320 265 -267 -276 -278 0
-320 -267 278 0
-320 -265 0
321 266 277 -320 0
-321 320 0
-321 266 -277 0
-321 -266 277 0
321 -266 -277 -320 0
322 -321 0
-322 319 321 0
322 -319 0
-323 275 0
323 264 267 -275 278 0
-323 267 -278 0
323 264 -267 -275 -278 0
-323 -267 278 0
-323 -264 0
324 266 277 -323 0
-324 323 0
-324 266 -277 0
-324 -266 277 0
324 -266 -277 -323 0
325 265 276 -324 0
-325 324 0
-325 265 -276 0
-325 -265 276 0
325 -265 -276 -324 0
326 -325 0
-326 322 325 0
326 -322 0
-327 274 0
327 263 267 -274 278 0
-327 267 -278 0
327 263 -267 -274 -278 0
-327 -267 278 0
-327 -263 0
328 266 277 -327 0
-328 327 0
-328 266 -277 0
-328 -266 277 0
328 -266 -277 -327 0
329 265 276 -328 0
-329 328 0
-329 265 -276 0
-329 -265 276 0
329 -265 -276 -328 0
330 264 275 -329 0
-330 329 0
-330 264 -275 0
-330 -264 275 0
330 -264 -275 -329 0
331 -330 0
-331 326 330 0
331 -326 0
-332 316 0
332 -316 -331 0
-332 331 0
-333 314 0
333 -314 332 0
-333 -332 0
334 -332 0
-334 315 332 0
334 -315 0
-335 333 0
335 -333 334 0
-335 -334 0
-336 256 0
336 -256 278 0
-336 -278 0
-337 255 0
337 -255 256 277 278 0
-337 256 -278 0
-337 -277 0
337 -255 -256 277 -278 0
-337 -256 278 0
338 -337 0
-338 336 337 0
338 -336 0
-339 254 0
339 -254 256 276 278 0
-339 256 -278 0
-339 -276 0
339 -254 -256 276 -278 0
-339 -256 278 0
340 255 277 -339 0
-340 339 0
-340 255 -277 0
-340 -255 277 0
340 -255 -277 -339 0
341 -340 0
-341 338 340 0
341 -338 0
-342 253 0
342 -253 256 275 278 0
-342 256 -278 0
-342 -275 0
342 -253 -256 275 -278 0
-342 -256 278 0
343 255 277 -342 0
-343 342 0
-343 255 -277 0
-343 -255 277 0
343 -255 -277 -342 0
344 254 276 -343 0
-344 343 0
-344 254 -276 0
-344 -254 276 0
344 -254 -276 -343 0
345 -344 0
-345 341 344 0
345 -341 0
-346 252 0
346 -252 256 274 278 0
-346 256 -278 0
-346 -274 0
346 -252 -256 274 -278 0
-346 -256 278 0
347 255 277 -346 0
-347 346 0
-347 255 -277 0
-347 -255 277 0
347 -255 -277 -346 0
348 254 276 -347 0
-348 347 0
-348 254 -276 0
-348 -254 276 0
348 -254 -276 -347 0
349 253 275 -348 0
-349 348 0
-349 253 -275 0
-349 -253 275 0
349 -253 -275 -348 0
350 -349 0
-350 345 349 0
350 -345 0
-351 335 0
351 -335 -350 0
-351 350 0
352 -351 0
-352 333 351 0
352 -333 0
353 -351 0
-353 334 351 0
353 -334 0
354 352 0
-354 -352 0
-355 353 0
355 -353 -354 0
-355 354 0
-356 267 0
356 -267 278 0
-356 -278 0
-357 266 0
357 -266 267 277 278 0
-357 267 -278 0
-357 -277 0
357 -266 -267 277 -278 0
-357 -267 278 0
358 -357 0
-358 356 357 0
358 -356 0
-359 265 0
359 -265 267 276 278 0
-359 267 -278 0
-359 -276 0
359 -265 -267 276 -278 0
-359 -267 278 0
360 266 277 -359 0
-360 359 0
-360 266 -277 0
-360 -266 277 0
360 -266 -277 -359 0
361 -360 0
-361 358 360 0
361 -358 0
-362 264 0
362 -264 267 275 278 0
-362 267 -278 0
-362 -275 0
362 -264 -267 275 -278 0
-362 -267 278 0
363 266 277 -362 0
-363 362 0
-363 266 -277 0
-363 -266 277 0
363 -266 -277 -362 0
364 265 276 -363 0
-364 363 0
-364 265 -276 0
-364 -265 276 0
364 -265 -276 -363 0
365 -364 0
-365 361 364 0
365 -361 0
-366 263 0
366 -263 267 274 278 0
-366 267 -278 0
-366 -274 0
366 -263 -267 274 -278 0
-366 -267 278 0
367 266 277 -366 0
-367 366 0
-367 266 -277 0
-367 -266 277 0
367 -266 -277 -366 0
368 265 276 -367 0
-368 367 0
-368 265 -276 0
-368 -265 276 0
368 -265 -276 -367 0
369 264 275 -368 0
-369 368 0
-369 264 -275 0
-369 -264 275 0
369 -264 -275 -368 0
370 -369 0
-370 365 369 0
370 -365 0
-371 355 0
371 -355 -370 0
-371 370 0
372 -371 0
-372 352 371 0
372 -352 0
373 -371 0
-373 353 371 0
373 -353 0
-374 372 0
374 -372 -373 0
-374 373 0
-375 0
-376 0
377 -376 0
-377 375 376 0
377 -375 0
-378 0
379 -378 0
-379 378 0
380 -379 0
-380 377 379 0
380 -377 0
-381 0
382 -381 0
-382 381 0
383 -382 0
-383 382 0
384 -383 0
-384 380 383 0
384 -380 0
-385 0
386 -385 0
-386 385 0
387 -386 0
-387 386 0
388 -387 0
-388 387 0
389 -388 0
-389 384 388 0
389 -384 0
-390 374 0
390 -374 -389 0
-390 389 0
391 -390 0
-391 372 390 0
391 -372 0
392 -390 0
-392 373 390 0
392 -373 0
-393 391 0
393 -391 392 0
-393 -392 0
394 -252 0
-394 252 0
395 -253 0
-395 253 0
396 -254 0
-396 254 0
397 -255 0
-397 255 0
398 -256 0
-398 256 0
399 391 0
-399 -391 0
-400 392 0
400 -392 -399 0
-400 399 0
401 -394 400 0
401 -263 -400 0
-401 394 400 0
-401 263 -400 0
402 -395 400 0
402 -264 -400 0
-402 395 400 0
-402 264 -400 0
403 -396 400 0
403 -265 -400 0
-403 396 400 0
-403 265 -400 0
404 -397 400 0
404 -266 -400 0
-404 397 400 0
-404 266 -400 0
405 -398 400 0
405 -267 -400 0
-405 398 400 0
-405 267 -400 0
406 -263 400 0
406 -394 -400 0
-406 263 400 0
-406 394 -400 0
407 -264 400 0
407 -395 -400 0
-407 264 400 0
-407 395 -400 0
408 -265 400 0
408 -396 -400 0
-408 265 400 0
-408 396 -400 0
409 -266 400 0
409 -397 -400 0
-409 266 400 0
-409 397 -400 0
410 -267 400 0
410 -398 -400 0
-410 267 400 0
-410 398 -400 0
-411 391 0
411 -391 -392 0
-411 392 0
412 -401 411 0
412 -274 -411 0
-412 401 411 0
-412 274 -411 0
413 -402 411 0
413 -275 -411 0
-413 402 411 0
-413 275 -411 0
414 -403 411 0
414 -276 -411 0
-414 403 411 0
-414 276 -411 0
415 -404 411 0
415 -277 -411 0
-415 404 411 0
-415 277 -411 0
416 -405 411 0
416 -278 -411 0
-416 405 411 0
-416 278 -411 0
417 -274 411 0
417 -401 -411 0
-417 274 411 0
-417 401 -411 0
418 -275 411 0
418 -402 -411 0
-418 275 411 0
-418 402 -411 0
419 -276 411 0
419 -403 -411 0
-419 276 411 0
-419 403 -411 0
420 -277 411 0
420 -404 -411 0
-420 277 411 0
-420 404 -411 0
421 -278 411 0
421 -405 -411 0
-421 278 411 0
-421 405 -411 0
-422 410 0
422 -410 421 0
-422 -421 0
-423 409 0
423 -409 410 420 421 0
-423 410 -421 0
-423 -420 0
423 -409 -410 420 -421 0
-423 -410 421 0
424 -423 0
-424 422 423 0
424 -422 0
-425 408 0
425 -408 410 419 421 0
-425 410 -421 0
-425 -419 0
425 -408 -410 419 -421 0
-425 -410 421 0
426 409 420 -425 0
-426 425 0
-426 409 -420 0
-426 -409 420 0
426 -409 -420 -425 0
427 -426 0
-427 424 426 0
427 -424 0
-428 407 0
428 -407 410 418 421 0
-428 410 -421 0
-428 -418 0
428 -407 -410 418 -421 0
-428 -410 421 0
429 409 420 -428 0
-429 428 0
-429 409 -420 0
-429 -409 420 0
429 -409 -420 -428 0
430 408 419 -429 0
-430 429 0
-430 408 -419 0
-430 -408 419 0
430 -408 -419 -429 0
431 -430 0
-431 427 430 0
431 -427 0
-432 406 0
432 -406 410 417 421 0
-432 410 -421 0
-432 -417 0
432 -406 -410 417 -421 0
-432 -410 421 0
433 409 420 -432 0
-433 432 0
-433 409 -420 0
-433 -409 420 0
433 -409 -420 -432 0
434 408 419 -433 0
-434 433 0
-434 408 -419 0
-434 -408 419 0
434 -408 -419 -433 0
435 407 418 -434 0
-435 434 0
-435 407 -418 0
-435 -407 418 0
435 -407 -418 -434 0
436 -435 0
-436 431 435 0
436 -431 0
-437 436 0
437 -436 0
438 0
-439 437 0
439 -437 -438 0
-439 438 0
-440 0
-441 0
442 -441 0
-442 440 441 0
442 -440 0
-443 0
444 -443 0
-444 443 0
445 -444 0
-445 442 444 0
445 -442 0
-446 0
447 -446 0
-447 446 0
448 -447 0
-448 447 0
449 -448 0
-449 445 448 0
449 -445 0
-450 0
451 -450 0
-451 450 0
452 -451 0
-452 451 0
453 -452 0
-453 452 0
454 -453 0
-454 449 453 0
454 -449 0
-455 439 0
455 -439 -454 0
-455 454 0
456 -455 0
-456 437 455 0
456 -437 0
457 -455 0
-457 438 455 0
457 -438 0
458 456 0
-458 -456 0
-459 457 0
459 -457 -458 0
-459 458 0
460 -406 0
-460 406 0
461 -407 0
-461 407 0
462 -408 0
-462 408 0
463 -409 0
-463 409 0
464 -410 0
-464 410 0
-465 456 0
465 -456 -457 0
-465 457 0
466 -460 465 0
466 -417 -465 0
-466 460 465 0
-466 417 -465 0
467 -461 465 0
467 -418 -465 0
-467 461 465 0
-467 418 -465 0
468 -462 465 0
468 -419 -465 0
-468 462 465 0
-468 419 -465 0
469 -463 465 0
469 -420 -465 0
-469 463 465 0
-469 420 -465 0
470 -464 465 0
470 -421 -465 0
-470 464 465 0
-470 421 -465 0
471 -417 465 0
471 -460 -465 0
-471 417 465 0
-471 460 -465 0
472 -418 465 0
472 -461 -465 0
-472 418 465 0
-472 461 -465 0
473 -419 465 0
473 -462 -465 0
-473 419 465 0
-473 462 -465 0
474 -420 465 0
474 -463 -465 0
-474 420 465 0
-474 463 -465 0
475 -421 465 0
475 -464 -465 0
-475 421 465 0
-475 464 -465 0
476 5 -10 0
-476 10 0
-476 -5 0
-477 9 0
477 4 5 -9 10 0
-477 5 -10 0
477 4 -5 -9 -10 0
-477 -5 10 0
-477 -4 0
478 -477 0
-478 476 477 0
478 -476 0
-479 8 0
479 3 5 -8 10 0
-479 5 -10 0
479 3 -5 -8 -10 0
-479 -5 10 0
-479 -3 0
480 4 9 -479 0
-480 479 0
-480 4 -9 0
-480 -4 9 0
480 -4 -9 -479 0
481 -480 0
-481 478 480 0
481 -478 0
-482 7 0
482 2 5 -7 10 0
-482 5 -10 0
482 2 -5 -7 -10 0
-482 -5 10 0
-482 -2 0
483 4 9 -482 0
-483 482 0
-483 4 -9 0
-483 -4 9 0
483 -4 -9 -482 0
484 3 8 -483 0
-484 483 0
-484 3 -8 0
-484 -3 8 0
484 -3 -8 -483 0
485 -484 0
-485 481 484 0
485 -481 0
-486 6 0
486 1 5 -6 10 0
-486 5 -10 0
486 1 -5 -6 -10 0
-486 -5 10 0
-486 -1 0
487 4 9 -486 0
-487 486 0
-487 4 -9 0
-487 -4 9 0
487 -4 -9 -486 0
488 3 8 -487 0
-488 487 0
-488 3 -8 0
-488 -3 8 0
488 -3 -8 -487 0
489 2 7 -488 0
-489 488 0
-489 2 -7 0
-489 -2 7 0
489 -2 -7 -488 0
490 -489 0
-490 485 489 0
490 -485 0
-491 490 0
491 -490 0
-492 51 0
492 -51 -491 0
-492 491 0
493 -492 0
-493 491 492 0
493 -491 0
494 493 0
-494 -493 0
495 5 -15 0
-495 15 0
-495 -5 0
-496 14 0
496 4 5 -14 15 0
-496 5 -15 0
496 4 -5 -14 -15 0
-496 -5 15 0
-496 -4 0
497 -496 0
-497 495 496 0
497 -495 0
-498 13 0
498 3 5 -13 15 0
-498 5 -15 0
498 3 -5 -13 -15 0
-498 -5 15 0
-498 -3 0
499 4 14 -498 0
-499 498 0
-499 4 -14 0
-499 -4 14 0
499 -4 -14 -498 0
500 -499 0
-500 497 499 0
500 -497 0
-501 12 0
501 2 5 -12 15 0
-501 5 -15 0
501 2 -5 -12 -15 0
-501 -5 15 0
-501 -2 0
502 4 14 -501 0
-502 501 0
-502 4 -14 0
-502 -4 14 0
502 -4 -14 -501 0
503 3 13 -502 0
-503 502 0
-503 3 -13 0
-503 -3 13 0
503 -3 -13 -502 0
504 -503 0
-504 500 503 0
504 -500 0
-505 11 0
505 1 5 -11 15 0
-505 5 -15 0
505 1 -5 -11 -15 0
-505 -5 15 0
-505 -1 0
506 4 14 -505 0
-506 505 0
-506 4 -14 0
-506 -4 14 0
506 -4 -14 -505 0
507 3 13 -506 0
-507 506 0
-507 3 -13 0
-507 -3 13 0
507 -3 -13 -506 0
508 2 12 -507 0
-508 507 0
-508 2 -12 0
-508 -2 12 0
508 -2 -12 -507 0
509 -508 0
-509 504 508 0
509 -504 0
-510 494 0
510 -494 -509 0
-510 509 0
-511 493 0
511 -493 510 0
-511 -510 0
-512 510 0
512 -510 0
-513 511 0
513 -511 512 0
-513 -512 0
-514 68 0
514 -68 -513 0
-514 513 0
-515 511 0
515 -511 514 0
-515 -514 0
516 -514 0
-516 512 514 0
516 -512 0
517 515 0
-517 -515 0
-518 516 0
518 -516 -517 0
-518 517 0
-519 138 0
519 -138 -518 0
-519 518 0
-520 515 0
520 -515 519 0
-520 -519 0
521 -519 0
-521 516 519 0
521 -516 0
-522 520 0
522 -520 -521 0
-522 521 0
-523 216 0
523 -216 -522 0
-523 522 0
-524 520 0
524 -520 523 0
-524 -523 0
525 -523 0
-525 521 523 0
525 -521 0
526 524 0
-526 -524 0
527 525 -526 0
-527 526 0
-527 -525 0
528 5 -20 0
-528 20 0
-528 -5 0
-529 19 0
529 4 5 -19 20 0
-529 5 -20 0
529 4 -5 -19 -20 0
-529 -5 20 0
-529 -4 0
530 -529 0
-530 528 529 0
530 -528 0
-531 18 0
531 3 5 -18 20 0
-531 5 -20 0
531 3 -5 -18 -20 0
-531 -5 20 0
-531 -3 0
532 4 19 -531 0
-532 531 0
-532 4 -19 0
-532 -4 19 0
532 -4 -19 -531 0
533 -532 0
-533 530 532 0
533 -530 0
-534 17 0
534 2 5 -17 20 0
-534 5 -20 0
534 2 -5 -17 -20 0
-534 -5 20 0
-534 -2 0
535 4 19 -534 0
-535 534 0
-535 4 -19 0
-535 -4 19 0
535 -4 -19 -534 0
536 3 18 -535 0
-536 535 0
-536 3 -18 0
-536 -3 18 0
536 -3 -18 -535 0
537 -536 0
-537 533 536 0
537 -533 0
-538 16 0
538 1 5 -16 20 0
-538 5 -20 0
538 1 -5 -16 -20 0
-538 -5 20 0
-538 -1 0
539 4 19 -538 0
-539 538 0
-539 4 -19 0
-539 -4 19 0
539 -4 -19 -538 0
540 3 18 -539 0
-540 539 0
-540 3 -18 0
-540 -3 18 0
540 -3 -18 -539 0
541 2 17 -540 0
-541 540 0
-541 2 -17 0
-541 -2 17 0
541 -2 -17 -540 0
542 -541 0
-542 537 541 0
542 -537 0
-543 527 0
543 -527 -542 0
-543 542 0
544 -543 0
-544 524 543 0
544 -524 0
545 -543 0
-545 525 543 0
545 -525 0
-546 544 0
546 -544 545 0
-546 -545 0
-547 83 0
547 -83 -546 0
-547 546 0
548 -547 0
-548 544 547 0
548 -544 0
549 -547 0
-549 545 547 0
549 -545 0
550 548 0
-550 -548 0
-551 549 0
551 -549 -550 0
-551 550 0
-552 157 0
552 -157 -551 0
-552 551 0
553 -552 0
-553 548 552 0
553 -548 0
554 -552 0
-554 549 552 0
554 -549 0
-555 553 0
555 -553 -554 0
-555 554 0
-556 235 0
556 -235 -555 0
-556 555 0
557 -556 0
-557 553 556 0
557 -553 0
558 -556 0
-558 554 556 0
558 -554 0
-559 557 0
559 -557 558 0
-559 -558 0
560 -1 559 0
560 -6 -559 0
-560 1 559 0
-560 6 -559 0
561 -2 559 0
561 -7 -559 0
-561 2 559 0
-561 7 -559 0
562 -3 559 0
562 -8 -559 0
-562 3 559 0
-562 8 -559 0
563 -4 559 0
563 -9 -559 0
-563 4 559 0
-563 9 -559 0
564 -5 559 0
564 -10 -559 0
-564 5 559 0
-564 10 -559 0
565 -6 559 0
565 -1 -559 0
-565 6 559 0
-565 1 -559 0
566 -7 559 0
566 -2 -559 0
-566 7 559 0
-566 2 -559 0
567 -8 559 0
567 -3 -559 0
-567 8 559 0
-567 3 -559 0
568 -9 559 0
568 -4 -559 0
-568 9 559 0
-568 4 -559 0
569 -10 559 0
569 -5 -559 0
-569 10 559 0
-569 5 -559 0
570 557 0
-570 -557 0
-571 558 0
571 -558 -570 0
-571 570 0
572 -560 571 0
572 -11 -571 0
-572 560 571 0
-572 11 -571 0
573 -561 571 0
573 -12 -571 0
-573 561 571 0
-573 12 -571 0
574 -562 571 0
574 -13 -571 0
-574 562 571 0
-574 13 -571 0
575 -563 571 0
575 -14 -571 0
-575 563 571 0
-575 14 -571 0
576 -564 571 0
576 -15 -571 0
-576 564 571 0
-576 15 -571 0
577 -11 571 0
577 -560 -571 0
-577 11 571 0
-577 560 -571 0
578 -12 571 0
578 -561 -571 0
-578 12 571 0
-578 561 -571 0
579 -13 571 0
579 -562 -571 0
-579 13 571 0
-579 562 -571 0
580 -14 571 0
580 -563 -571 0
-580 14 571 0
-580 563 -571 0
581 -15 571 0
581 -564 -571 0
-581 15 571 0
-581 564 -571 0
582 -565 0
-582 565 0
583 -566 0
-583 566 0
584 -567 0
-584 567 0
585 -568 0
-585 568 0
586 -569 0
-586 569 0
-587 557 0
587 -557 -558 0
-587 558 0
588 587 0
-588 -587 0
589 -572 588 0
589 -16 -588 0
-589 572 588 0
-589 16 -588 0
590 -573 588 0
590 -17 -588 0
-590 573 588 0
-590 17 -588 0
591 -574 588 0
591 -18 -588 0
-591 574 588 0
-591 18 -588 0
592 -575 588 0
592 -19 -588 0
-592 575 588 0
-592 19 -588 0
593 -576 588 0
593 -20 -588 0
-593 576 588 0
-593 20 -588 0
594 -16 588 0
594 -572 -588 0
-594 16 588 0
-594 572 -588 0
595 -17 588 0
595 -573 -588 0
-595 17 588 0
-595 573 -588 0
596 -18 588 0
596 -574 -588 0
-596 18 588 0
-596 574 -588 0
597 -19 588 0
597 -575 -588 0
-597 19 588 0
-597 575 -588 0
598 -20 588 0
598 -576 -588 0
-598 20 588 0
-598 576 -588 0
599 -582 588 0
599 -577 -588 0
-599 582 588 0
-599 577 -588 0
600 -583 588 0
600 -578 -588 0
-600 583 588 0
-600 578 -588 0
601 -584 588 0
601 -579 -588 0
-601 584 588 0
-601 579 -588 0
602 -585 588 0
602 -580 -588 0
-602 585 588 0
-602 580 -588 0
603 -586 588 0
603 -581 -588 0
-603 586 588 0
-603 581 -588 0
604 -577 588 0
604 -582 -588 0
-604 577 588 0
-604 582 -588 0
605 -578 588 0
605 -583 -588 0
-605 578 588 0
-605 583 -588 0
606 -579 588 0
606 -584 -588 0
-606 579 588 0
-606 584 -588 0
607 -580 588 0
607 -585 -588 0
-607 580 588 0
-607 585 -588 0
608 -581 588 0
608 -586 -588 0
-608 581 588 0
-608 586 -588 0
609 593 -603 0
-609 603 0
-609 -593 0
-610 602 0
610 592 593 -602 603 0
-610 593 -603 0
610 592 -593 -602 -603 0
-610 -593 603 0
-610 -592 0
611 -610 0
-611 609 610 0
611 -609 0
-612 601 0
612 591 593 -601 603 0
-612 593 -603 0
612 591 -593 -601 -603 0
-612 -593 603 0
-612 -591 0
613 592 602 -612 0
-613 612 0
-613 592 -602 0
-613 -592 602 0
613 -592 -602 -612 0
614 -613 0
-614 611 613 0
614 -611 0
-615 600 0
615 590 593 -600 603 0
-615 593 -603 0
615 590 -593 -600 -603 0
-615 -593 603 0
-615 -590 0
616 592 602 -615 0
-616 615 0
-616 592 -602 0
-616 -592 602 0
616 -592 -602 -615 0
617 591 601 -616 0
-617 616 0
-617 591 -601 0
-617 -591 601 0
617 -591 -601 -616 0
618 -617 0
-618 614 617 0
618 -614 0
-619 599 0
619 589 593 -599 603 0
-619 593 -603 0
619 589 -593 -599 -603 0
-619 -593 603 0
-619 -589 0
620 592 602 -619 0
-620 619 0
-620 592 -602 0
-620 -592 602 0
620 -592 -602 -619 0
621 591 601 -620 0
-621 620 0
-621 591 -601 0
-621 -591 601 0
621 -591 -601 -620 0
622 590 600 -621 0
-622 621 0
-622 590 -600 0
-622 -590 600 0
622 -590 -600 -621 0
623 -622 0
-623 618 622 0
623 -618 0
-624 623 0
624 -623 0
-625 0
-626 0
627 -626 0
-627 625 626 0
627 -625 0
-628 0
629 -628 0
-629 628 0
630 -629 0
-630 627 629 0
630 -627 0
-631 0
632 -631 0
-632 631 0
633 -632 0
-633 632 0
634 -633 0
-634 630 633 0
634 -630 0
-635 0
636 -635 0
-636 635 0
637 -636 0
-637 636 0
638 -637 0
-638 637 0
639 -638 0
-639 634 638 0
639 -634 0
-640 624 0
640 -624 -639 0
-640 639 0
641 -640 0
-641 624 640 0
641 -624 0
642 641 0
-642 -641 0
643 593 -608 0
-643 608 0
-643 -593 0
-644 607 0
644 592 593 -607 608 0
-644 593 -608 0
644 592 -593 -607 -608 0
-644 -593 608 0
-644 -592 0
645 -644 0
-645 643 644 0
645 -643 0
-646 606 0
646 591 593 -606 608 0
-646 593 -608 0
646 591 -593 -606 -608 0
-646 -593 608 0
-646 -591 0
647 592 607 -646 0
-647 646 0
-647 592 -607 0
-647 -592 607 0
647 -592 -607 -646 0
648 -647 0
-648 645 647 0
648 -645 0
-649 605 0
649 590 593 -605 608 0
-649 593 -608 0
649 590 -593 -605 -608 0
-649 -593 608 0
-649 -590 0
650 592 607 -649 0
-650 649 0
-650 592 -607 0
-650 -592 607 0
650 -592 -607 -649 0
651 591 606 -650 0
-651 650 0
-651 591 -606 0
-651 -591 606 0
651 -591 -606 -650 0
652 -651 0
-652 648 651 0
652 -648 0
-653 604 0
653 589 593 -604 608 0
-653 593 -608 0
653 589 -593 -604 -608 0
-653 -593 608 0
-653 -589 0
654 592 607 -653 0
-654 653 0
-654 592 -607 0
-654 -592 607 0
654 -592 -607 -653 0
655 591 606 -654 0
-655 654 0
-655 591 -606 0
-655 -591 606 0
655 -591 -606 -654 0
656 590 605 -655 0
-656 655 0
-656 590 -605 0
-656 -590 605 0
656 -590 -605 -655 0
657 -656 0
-657 652 656 0
657 -652 0
-658 642 0
658 -642 -657 0
-658 657 0
-659 641 0
659 -641 658 0
-659 -658 0
-660 658 0
660 -658 0
-661 659 0
661 -659 660 0
-661 -660 0
662 603 -608 0
-662 608 0
-662 -603 0
-663 607 0
663 602 603 -607 608 0
-663 603 -608 0
663 602 -603 -607 -608 0
-663 -603 608 0
-663 -602 0
664 -663 0
-664 662 663 0
664 -662 0
-665 606 0
665 601 603 -606 608 0
-665 603 -608 0
665 601 -603 -606 -608 0
-665 -603 608 0
-665 -601 0
666 602 607 -665 0
-666 665 0
-666 602 -607 0
-666 -602 607 0
666 -602 -607 -665 0
667 -666 0
-667 664 666 0
667 -664 0
-668 605 0
668 600 603 -605 608 0
-668 603 -608 0
668 600 -603 -605 -608 0
-668 -603 608 0
-668 -600 0
669 602 607 -668 0
-669 668 0
-669 602 -607 0
-669 -602 607 0
669 -602 -607 -668 0
670 601 606 -669 0
-670 669 0
-670 601 -606 0
-670 -601 606 0
670 -601 -606 -669 0
671 -670 0
-671 667 670 0
671 -667 0
-672 604 0
672 599 603 -604 608 0
-672 603 -608 0
672 599 -603 -604 -608 0
-672 -603 608 0
-672 -599 0
673 602 607 -672 0
-673 672 0
-673 602 -607 0
-673 -602 607 0
673 -602 -607 -672 0
674 601 606 -673 0
-674 673 0
-674 601 -606 0
-674 -601 606 0
674 -601 -606 -673 0
675 600 605 -674 0
-675 674 0
-675 600 -605 0
-675 -600 605 0
675 -600 -605 -674 0
676 -675 0
-676 671 675 0
676 -671 0
-677 661 0
677 -661 -676 0
-677 676 0
-678 659 0
678 -659 677 0
-678 -677 0
679 -677 0
-679 660 677 0
679 -660 0
680 678 0
-680 -678 0
-681 679 0
681 -679 -680 0
-681 680 0
-682 0
-683 0
684 -683 0
-684 682 683 0
684 -682 0
-685 0
686 -685 0
-686 685 0
687 -686 0
-687 684 686 0
687 -684 0
-688 0
689 -688 0
-689 688 0
690 -689 0
-690 689 0
691 -690 0
-691 687 690 0
691 -687 0
-692 0
693 -692 0
-693 692 0
694 -693 0
-694 693 0
695 -694 0
-695 694 0
696 -695 0
-696 691 695 0
696 -691 0
-697 681 0
697 -681 -696 0
-697 696 0
-698 678 0
698 -678 697 0
-698 -697 0
699 -697 0
-699 679 697 0
699 -679 0
-700 698 0
700 -698 699 0
-700 -699 0
701 -589 700 0
701 -599 -700 0
-701 589 700 0
-701 599 -700 0
702 -590 700 0
702 -600 -700 0
-702 590 700 0
-702 600 -700 0
703 -591 700 0
703 -601 -700 0
-703 591 700 0
-703 601 -700 0
704 -592 700 0
704 -602 -700 0
-704 592 700 0
-704 602 -700 0
705 -593 700 0
705 -603 -700 0
-705 593 700 0
-705 603 -700 0
706 -599 700 0
706 -589 -700 0
-706 599 700 0
-706 589 -700 0
707 -600 700 0
707 -590 -700 0
-707 600 700 0
-707 590 -700 0
708 -601 700 0
708 -591 -700 0
-708 601 700 0
-708 591 -700 0
709 -602 700 0
709 -592 -700 0
-709 602 700 0
-709 592 -700 0
710 -603 700 0
710 -593 -700 0
-710 603 700 0
-710 593 -700 0
711 698 0
-711 -698 0
-712 699 0
712 -699 -711 0
-712 711 0
713 712 0
-713 -712 0
714 -701 713 0
714 -604 -713 0
-714 701 713 0
-714 604 -713 0
715 -702 713 0
715 -605 -713 0
-715 702 713 0
-715 605 -713 0
716 -703 713 0
716 -606 -713 0
-716 703 713 0
-716 606 -713 0
717 -704 713 0
717 -607 -713 0
-717 704 713 0
-717 607 -713 0
718 -705 713 0
718 -608 -713 0
-718 705 713 0
-718 608 -713 0
719 -604 713 0
719 -701 -713 0
-719 604 713 0
-719 701 -713 0
720 -605 713 0
720 -702 -713 0
-720 605 713 0
-720 702 -713 0
721 -606 713 0
721 -703 -713 0
-721 606 713 0
-721 703 -713 0
722 -607 713 0
722 -704 -713 0
-722 607 713 0
-722 704 -713 0
723 -608 713 0
723 -705 -713 0
-723 608 713 0
-723 705 -713 0
724 -706 0
-724 706 0
725 -707 0
-725 707 0
726 -708 0
-726 708 0
727 -709 0
-727 709 0
728 -710 0
-728 710 0
729 718 -728 0
-729 728 0
-729 -718 0
-730 727 0
730 717 718 -727 728 0
-730 718 -728 0
730 717 -718 -727 -728 0
-730 -718 728 0
-730 -717 0
731 -730 0
-731 729 730 0
731 -729 0
-732 726 0
732 716 718 -726 728 0
-732 718 -728 0
732 716 -718 -726 -728 0
-732 -718 728 0
-732 -716 0
733 717 727 -732 0
-733 732 0
-733 717 -727 0
-733 -717 727 0
733 -717 -727 -732 0
734 -733 0
-734 731 733 0
734 -731 0
-735 725 0
735 715 718 -725 728 0
-735 718 -728 0
735 715 -718 -725 -728 0
-735 -718 728 0
-735 -715 0
736 717 727 -735 0
-736 735 0
-736 717 -727 0
-736 -717 727 0
736 -717 -727 -735 0
737 716 726 -736 0
-737 736 0
-737 716 -726 0
-737 -716 726 0
737 -716 -726 -736 0
738 -737 0
-738 734 737 0
738 -734 0
-739 724 0
739 714 718 -724 728 0
-739 718 -728 0
739 714 -718 -724 -728 0
-739 -718 728 0
-739 -714 0
740 717 727 -739 0
-740 739 0
-740 717 -727 0
-740 -717 727 0
740 -717 -727 -739 0
741 716 726 -740 0
-741 740 0
-741 716 -726 0
-741 -716 726 0
741 -716 -726 -740 0
742 715 725 -741 0
-742 741 0
-742 715 -725 0
-742 -715 725 0
742 -715 -725 -741 0
743 -742 0
-743 738 742 0
743 -738 0
-744 743 0
744 -743 0
-745 0
-746 0
747 -746 0
-747 745 746 0
747 -745 0
-748 0
749 -748 0
-749 748 0
750 -749 0
-750 747 749 0
750 -747 0
-751 0
752 -751 0
-752 751 0
753 -752 0
-753 752 0
754 -753 0
-754 750 753 0
754 -750 0
-755 0
756 -755 0
-756 755 0
757 -756 0
-757 756 0
758 -757 0
-758 757 0
759 -758 0
-759 754 758 0
759 -754 0
-760 744 0
760 -744 -759 0
-760 759 0
761 -760 0
-761 744 760 0
761 -744 0
762 761 0
-762 -761 0
763 -714 762 0
763 -724 -762 0
-763 714 762 0
-763 724 -762 0
764 -715 762 0
764 -725 -762 0
-764 715 762 0
-764 725 -762 0
765 -716 762 0
765 -726 -762 0
-765 716 762 0
-765 726 -762 0
766 -717 762 0
766 -727 -762 0
-766 717 762 0
-766 727 -762 0
767 -718 762 0
767 -728 -762 0
-767 718 762 0
-767 728 -762 0
768 -724 762 0
768 -714 -762 0
-768 724 762 0
-768 714 -762 0
769 -725 762 0
769 -715 -762 0
-769 725 762 0
-769 715 -762 0
770 -726 762 0
770 -716 -762 0
-770 726 762 0
-770 716 -762 0
771 -727 762 0
771 -717 -762 0
-771 727 762 0
-771 717 -762 0
772 -728 762 0
772 -718 -762 0
-772 728 762 0
-772 718 -762 0
773 269 -763 0
773 -269 763 0
-773 269 763 0
-773 -269 -763 0
774 270 -764 0
774 -270 764 0
-774 270 764 0
-774 -270 -764 0
775 271 -765 0
775 -271 765 0
-775 271 765 0
-775 -271 -765 0
776 272 -766 0
776 -272 766 0
-776 272 766 0
-776 -272 -766 0
777 273 -767 0
777 -273 767 0
-777 273 767 0
-777 -273 -767 0
778 412 -768 0
778 -412 768 0
-778 412 768 0
-778 -412 -768 0
779 413 -769 0
779 -413 769 0
-779 413 769 0
-779 -413 -769 0
780 414 -770 0
780 -414 770 0
-780 414 770 0
-780 -414 -770 0
781 415 -771 0
781 -415 771 0
-781 415 771 0
-781 -415 -771 0
782 416 -772 0
782 -416 772 0
-782 416 772 0
-782 -416 -772 0
783 466 -719 0
783 -466 719 0
-783 466 719 0
-783 -466 -719 0
784 467 -720 0
784 -467 720 0
-784 467 720 0
-784 -467 -720 0
785 468 -721 0
785 -468 721 0
-785 468 721 0
-785 -468 -721 0
786 469 -722 0
786 -469 722 0
-786 469 722 0
-786 -469 -722 0
787 470 -723 0
787 -470 723 0
-787 470 723 0
-787 -470 -723 0
788 471 -594 0
788 -471 594 0
-788 471 594 0
-788 -471 -594 0
789 472 -595 0
789 -472 595 0
-789 472 595 0
-789 -472 -595 0
790 473 -596 0
790 -473 596 0
-790 473 596 0
-790 -473 -596 0
791 474 -597 0
791 -474 597 0
-791 474 597 0
-791 -474 -597 0
792 475 -598 0
792 -475 598 0
-792 475 598 0
-792 -475 -598 0
793 -777 0
-793 773 774 775 776 777 0
793 -776 0
793 -775 0
793 -774 0
793 -773 0
794 -782 0
-794 778 779 780 781 782 0
794 -781 0
794 -780 0
794 -779 0
794 -778 0
795 -787 0
-795 783 784 785 786 787 0
795 -786 0
795 -785 0
795 -784 0
795 -783 0
796 -792 0
-796 788 789 790 791 792 0
796 -791 0
796 -790 0
796 -789 0
796 -788 0
797 -796 0
-797 793 794 795 796 0
797 -795 0
797 -794 0
797 -793 0
797 0
